
Gurobi 10.0.1 (linux64) logging started Sun Nov 26 15:37:30 2023

Set parameter LogFile to value "ArtificialInstance/ExperimentV2/S4T4K1/AdSp/gurobi1.txt"
Gurobi Optimizer version 10.0.1 build v10.0.1rc0 (linux64)

CPU model: AMD EPYC 7H12 64-Core Processor, instruction set [SSE2|AVX|AVX2]
Thread count: 128 physical cores, 128 logical processors, using up to 32 threads

Academic license 656792 - for non-commercial use only - registered to b.___@student.vu.nl
Optimize a model with 4655 rows, 4405 columns and 16699 nonzeros
Model fingerprint: 0x35d71a05
Variable types: 0 continuous, 4405 integer (4405 binary)
Coefficient statistics:
  Matrix range     [1e+00, 1e+00]
  Objective range  [9e-01, 2e+01]
  Bounds range     [1e+00, 1e+00]
  RHS range        [1e+00, 1e+00]
Presolve removed 457 rows and 427 columns
Presolve time: 0.06s
Presolved: 4198 rows, 3978 columns, 15404 nonzeros
Variable types: 0 continuous, 3978 integer (3978 binary)
Found heuristic solution: objective 593.4618887

Root relaxation: objective 4.921286e+01, 2916 iterations, 0.12 seconds (0.10 work units)

    Nodes    |    Current Node    |     Objective Bounds      |     Work
 Expl Unexpl |  Obj  Depth IntInf | Incumbent    BestBd   Gap | It/Node Time

     0     0   49.21286    0  271  593.46189   49.21286  91.7%     -    0s
H    0     0                     495.0430757   49.21286  90.1%     -    0s
H    0     0                      79.4488726   49.21286  38.1%     -    0s
     0     0   50.43706    0  336   79.44887   50.43706  36.5%     -    0s
H    0     0                      52.1147565   50.43706  3.22%     -    0s
     0     0   51.37683    0  467   52.11476   51.37683  1.42%     -    0s
     0     0   51.37683    0  213   52.11476   51.37683  1.42%     -    0s
     0     0     cutoff    0        52.11476   52.11476  0.00%     -    0s

Cutting planes:
  Gomory: 10
  Zero half: 24

Explored 1 nodes (6641 simplex iterations) in 0.79 seconds (0.45 work units)
Thread count was 32 (of 128 available processors)

Solution count 4: 52.1148 79.4489 495.043 593.462 

Optimal solution found (tolerance 1.00e-04)
Best objective 5.211475648362e+01, best bound 5.211475648362e+01, gap 0.0000%
